NAME : gaussian_random124.8292.tour
COMMENT : Length = 8292
COMMENT : Found by LKH [Keld Helsgaun] Sun Jul  7 17:51:48 2024
TYPE : TOUR
DIMENSION : 124
TOUR_SECTION
1
14
29
59
120
57
60
121
71
88
20
114
110
38
58
112
49
27
18
94
35
50
76
25
26
100
54
79
28
4
63
24
93
95
21
109
15
53
115
67
98
123
99
17
34
30
118
101
66
116
77
91
107
42
52
37
19
10
111
103
8
108
83
78
68
72
61
51
22
31
86
102
41
45
73
70
104
55
40
80
44
33
117
105
87
65
7
56
32
5
122
3
82
96
119
64
11
2
39
90
106
74
23
89
12
6
43
69
36
75
81
16
62
9
46
113
48
47
13
92
97
124
85
84
-1
EOF
